80 14040682
65 55 42 31 40 12 62 61 19 52 18 14 13 43 1 29 10 26 80 35 74 44 25 22 2 63 72 56 34 21 6 53 30 73 36 47 7 45 38 17 46 79 5 16 59 71 49 69 54 15 37 77 9 23 68 57 20 50 64 67 78 48 58 33 3 66 76 11 39 41 27 28 32 51 70 4 75 8 60 24 
